c File: instances/20_0.45_3.col
c
c Description: Random graph of size 20 vertices and P(0.44999999999999996) of edges between any two vertices.
p col 20 190
e 1 6
e 1 8
e 1 11
e 1 14
e 1 17
e 2 4
e 2 11
e 2 15
e 2 18
e 2 19
e 3 5
e 3 8
e 3 9
e 3 10
e 3 14
e 3 16
e 4 5
e 4 8
e 4 11
e 4 13
e 4 15
e 4 18
e 4 19
e 5 8
e 5 9
e 5 10
e 5 11
e 5 13
e 5 14
e 5 17
e 5 19
e 5 20
e 6 9
e 6 10
e 6 11
e 6 12
e 6 13
e 6 14
e 6 15
e 6 16
e 6 17
e 7 9
e 7 10
e 7 14
e 7 16
e 8 10
e 8 11
e 8 13
e 8 17
e 8 18
e 8 19
e 8 20
e 9 14
e 9 16
e 9 18
e 9 20
e 10 11
e 10 14
e 10 15
e 10 16
e 11 13
e 11 20
e 12 14
e 12 18
e 13 14
e 13 15
e 13 19
e 14 15
e 14 16
e 14 20
e 15 18
e 15 20
e 16 18
e 17 18
e 17 20
e 18 20